20
0 1 0.64 0.27
0 2 0.6 0.13
0 3 0.6 0.15
0 4 0.74 0.19
0 5 0.52 0.31
0 6 0.78 0.22
0 7 0.64 0.02
0 8 0.32 0.23
0 9 0.58 0.14
0 10 0.28 0.26
0 11 0.66 0.25
0 12 0.72 0.19
0 13 0.42 0.2
0 14 0.2 0.15
0 15 0.36 0.08
0 16 0.77 0.07
0 17 0.3 0.15
0 18 0.68 0.15
0 19 0.58 0.24
1 2 0.48 0.22
1 3 0.51 0.2
1 4 0.64 0.32
1 5 0.74 0.44
1 6 0.6 0.3
1 7 0.52 0.25
1 8 0.32 0.28
1 9 0.68 0.32
1 10 0.58 0.38
1 11 0.51 0.34
1 12 0.56 0.34
1 13 0.5 0.18
1 14 0.66 0.31
1 15 0.63 0.24
1 16 0.4 0.2
1 17 0.56 0.2
1 18 0.25 0.2
1 19 0.61 0.31
2 3 0.63 0.02
2 4 0.76 0.21
2 5 0.6 0.3
2 6 0.36 0.16
2 7 0.31 0.11
2 8 0.53 0.1
2 9 0.69 0.12
2 10 0.48 0.26
2 11 0.82 0.28
2 12 0.76 0.3
2 13 0.64 0.23
2 14 0.66 0.18
2 15 0.5 0.17
2 16 0.58 0.09
2 17 0.68 0.02
2 18 0.6 0.14
2 19 0.78 0.16
3 4 0.63 0.23
3 5 0.77 0.28
3 6 0.54 0.14
3 7 0.32 0.13
3 8 0.62 0.08
3 9 0.62 0.14
3 10 0.52 0.24
3 11 0.5 0.26
3 12 0.78 0.32
3 13 0.72 0.25
3 14 0.43 0.16
3 15 0.59 0.19
3 16 0.56 0.11
3 17 0.44 0.0
3 18 0.49 0.16
3 19 0.78 0.14
4 5 0.56 0.12
4 6 0.55 0.37
4 7 0.86 0.17
4 8 0.79 0.31
4 9 0.68 0.33
4 10 0.48 0.24
4 11 0.5 0.2
4 12 0.22 0.2
4 13 0.52 0.29
4 14 0.56 0.26
4 15 0.58 0.23
4 16 0.24 0.12
4 17 0.68 0.23
4 18 0.52 0.2
4 19 0.72 0.28
5 6 0.77 0.42
5 7 0.48 0.29
5 8 0.46 0.32
5 9 0.6 0.42
5 10 0.75 0.36
5 11 0.64 0.32
5 12 0.66 0.24
5 13 0.51 0.32
5 14 0.34 0.25
5 15 0.4 0.31
5 16 0.46 0.24
5 17 0.82 0.28
5 18 0.78 0.32
5 19 0.82 0.4
6 7 0.56 0.2
6 8 0.84 0.22
6 9 0.75 0.22
6 10 0.62 0.22
6 11 0.46 0.26
6 12 0.77 0.28
6 13 0.57 0.12
6 14 0.58 0.21
6 15 0.48 0.14
6 16 0.31 0.25
6 17 0.54 0.14
6 18 0.56 0.19
6 19 0.46 0.12
7 8 0.73 0.21
7 9 0.7 0.16
7 10 0.54 0.28
7 11 0.76 0.23
7 12 0.67 0.21
7 13 0.59 0.18
7 14 0.44 0.13
7 15 0.58 0.06
7 16 0.74 0.05
7 17 0.63 0.13
7 18 0.68 0.13
7 19 0.59 0.22
8 9 0.44 0.22
8 10 0.51 0.32
8 11 0.43 0.24
8 12 0.57 0.34
8 13 0.27 0.18
8 14 0.52 0.24
8 15 0.64 0.27
8 16 0.62 0.19
8 17 0.54 0.08
8 18 0.57 0.24
8 19 0.66 0.22
9 10 0.65 0.2
9 11 0.44 0.26
9 12 0.5 0.33
9 13 0.71 0.23
9 14 0.71 0.29
9 15 0.79 0.22
9 16 0.44 0.21
9 17 0.56 0.14
9 18 0.62 0.26
9 19 0.7 0.1
10 11 0.46 0.17
10 12 0.54 0.36
10 13 0.24 0.2
10 14 0.48 0.27
10 15 0.64 0.3
10 16 0.53 0.27
10 17 0.39 0.24
10 18 0.58 0.29
10 19 0.3 0.1
11 12 0.64 0.35
11 13 0.5 0.29
11 14 0.81 0.1
11 15 0.78 0.17
11 16 0.74 0.28
11 17 0.36 0.26
11 18 0.7 0.25
11 19 0.7 0.27
12 13 0.3 0.16
12 14 0.7 0.34
12 15 0.54 0.27
12 16 0.46 0.26
12 17 0.58 0.32
12 18 0.62 0.25
12 19 0.76 0.29
13 14 0.6 0.19
13 15 0.54 0.12
13 16 0.4 0.17
13 17 0.47 0.25
13 18 0.54 0.09
13 19 0.46 0.13
14 15 0.16 0.07
14 16 0.57 0.18
14 17 0.5 0.16
14 18 0.54 0.26
14 19 0.52 0.27
15 16 0.73 0.11
15 17 0.66 0.19
15 18 0.38 0.19
15 19 0.42 0.2
16 17 0.56 0.11
16 18 0.45 0.08
16 19 0.48 0.17
17 18 0.81 0.16
17 19 0.34 0.14
18 19 0.68 0.22
